p cnf 67 242
-1 2 -3 0
1 -2 -3 0
-1 -2 3 0
1 2 3 0
5 4 0
5 1 0
-4 -1 -5 0
6 -3 0
6 5 0
3 -5 -6 0
-10 8 0
-10 9 0
-8 -9 10 0
11 -10 0
11 -2 0
10 2 -11 0
-12 7 0
-12 -11 0
-7 11 12 0
-13 12 0
-13 -3 0
-12 3 13 0
-6 -13 -14 0
6 13 -14 0
-6 13 14 0
6 -13 14 0
-16 -7 0
-16 -15 0
7 15 16 0
2 -1 -17 0
-2 1 -17 0
2 1 17 0
-2 -1 17 0
-16 17 -18 0
16 -17 -18 0
-16 -17 18 0
16 17 18 0
19 10 0
19 2 0
-10 -2 -19 0
20 -19 0
20 -6 0
19 6 -20 0
-21 -18 0
-21 20 0
18 -20 21 0
-16 8 -22 0
16 -8 -22 0
-16 -8 22 0
16 8 22 0
-23 21 0
-23 -22 0
-21 22 23 0
-13 6 -24 0
13 -6 -24 0
-13 -6 24 0
13 6 24 0
24 9 -25 0
-24 -9 -25 0
24 -9 25 0
-24 9 25 0
23 -25 -26 0
-23 25 -26 0
23 25 26 0
-23 -25 26 0
27 14 0
27 -26 0
-14 26 -27 0
29 -1 0
29 28 0
1 -28 -29 0
29 13 -30 0
-29 -13 -30 0
29 -13 30 0
-29 13 30 0
-31 27 0
-31 -30 0
-27 30 31 0
-32 3 0
-32 -16 0
-3 16 32 0
32 15 -33 0
-32 -15 -33 0
32 -15 33 0
-32 15 33 0
16 33 -34 0
-16 -33 -34 0
16 -33 34 0
-16 33 34 0
-31 -34 -35 0
31 34 -35 0
-31 34 35 0
31 -34 35 0
36 7 0
36 10 0
-7 -10 -36 0
-37 -8 0
-37 19 0
8 -19 37 0
38 36 0
38 37 0
-36 -37 -38 0
-39 35 0
-39 -38 0
-35 38 39 0
-41 40 0
-41 10 0
-40 -10 41 0
-42 39 0
-42 -41 0
-39 41 42 0
-43 6 0
-43 -15 0
-6 15 43 0
-44 -28 0
-44 -2 0
28 2 44 0
-45 44 0
-45 -13 0
-44 13 45 0
46 15 0
46 -5 0
-15 5 -46 0
-47 -45 0
-47 -46 0
45 46 47 0
-48 -43 0
-48 -47 0
43 47 48 0
-49 42 0
-49 -48 0
-42 48 49 0
-50 -16 0
-50 -15 0
16 15 50 0
51 1 0
51 -5 0
-1 5 -51 0
-52 -19 0
-52 8 0
19 -8 52 0
53 2 0
53 52 0
-2 -52 -53 0
-54 6 0
-54 28 0
-6 -28 54 0
-55 -24 0
-55 -54 0
24 54 55 0
13 -1 -56 0
-13 1 -56 0
13 1 56 0
-13 -1 56 0
57 -55 0
57 56 0
55 -56 -57 0
-53 -57 -58 0
53 57 -58 0
-53 57 58 0
53 -57 58 0
59 -51 0
59 -58 0
51 58 -59 0
-50 59 -60 0
50 -59 -60 0
-50 -59 60 0
50 59 60 0
-62 -61 0
-62 -61 0
61 62 0
-63 -28 0
-63 28 0
64 22 0
64 -63 0
-22 63 -64 0
-65 -62 0
-65 64 0
62 -64 65 0
66 60 0
66 65 0
-60 -65 -66 0
-67 -49 0
-67 66 0
49 -66 67 0
15 8 6 0
-41 -59 56 14 62 -42 0
-2 21 -29 51 5 37 0
-6 -32 0
44 3 -54 0
20 -47 -53 -55 -54 -59 0
-57 64 0
-54 20 4 53 -59 0
-3 67 -13 -15 47 0
13 35 34 24 0
-40 -34 57 12 -22 0
65 12 41 -38 -19 0
56 -53 -60 -52 5 0
63 44 47 31 0
-2 -66 8 -24 -47 0
-59 47 61 4 0
30 58 -40 66 41 48 0
-29 7 -16 -34 0
-21 22 32 9 -30 54 0
17 -48 36 45 0
-34 -5 59 -53 -65 0
-36 38 47 51 -28 0
-43 -24 -39 -26 0
-42 -44 7 6 0
-66 35 -21 0
-20 -57 0
-1 50 55 -35 0
-10 6 4 12 0
51 18 58 -55 0
-9 66 -2 43 26 0
43 -65 -55 0
32 -35 0
-14 0
-22 -38 -6 -46 -12 -43 0
16 -62 24 0
-11 -19 0
-41 -39 -13 0
38 -42 1 57 19 -2 0
42 -59 17 66 0
-64 -54 -35 -34 -6 -4 0
27 42 11 5 0
-61 -15 -37 5 -29 -33 0
36 24 0
48 21 -14 0
-5 -57 -24 -22 -65 19 0
-42 -55 29 0
52 -1 -33 54 -34 0
59 37 16 -26 10 0
-6 -54 0
38 39 30 0
6 59 -50 31 0
-46 32 19 -59 44 15 0
23 5 -30 0
18 16 -17 -30 -56 67 0
-4 -52 -2 0
48 19 -22 -21 0
67 0
